c ---- [ banner ] ------------------------------------------------------------
c
c Kissat SAT Solver
c 
c Copyright (c) 2021-2024 Armin Biere University of Freiburg
c Copyright (c) 2019-2021 Armin Biere Johannes Kepler University Linz
c 
c Version 4.0.1 43f02cf3e992cb44653b35e5cb26f93281552ae0
c gcc (Ubuntu 13.2.0-23ubuntu4) 13.2.0 -W -Wall -O3 -DNDEBUG
c Thu Sep 12 12:27:46 CEST 2024 Linux abryzen9 6.8.0-41-generic x86_64
c
c ---- [ parsing ] -----------------------------------------------------------
c
c opened and reading DIMACS file:
c
c   /data/artifact/AMulet2.0_artifact/exp4/cnf_sopb_64/64_64_U_SP_DT_LF_GenMul_sopb.cnf
c
c parsed 'p cnf 27878 125997' header
c closing input after reading 2534394 bytes (2 MB)
c finished parsing after 0.03 seconds
c
c ---- [ options ] -----------------------------------------------------------
c
c --stable=0                       (different from default '1')
c
c ---- [ solving ] -----------------------------------------------------------
c
c  seconds switched rate     size/glue tier1  binary           remaining
c         MB reductions conflicts size  tier2     irredundant
c          level restarts redundant glue  trail           variables
c
c *  0.03 10 0 0 0  0 0   0   0 0.0 0 0 0 0 0% 10993 115002 27875 100%
c (  0.06 12 0 0 0  0 0   0   0 0.0 0 0 0 0 0% 10993 115002 27875 100%
c .  0.07 12 0 0 0  0 0   0   0 0.0 0 0 0 0 0% 10989 115002 27875 100%
c c  0.16 17 0 0 0  0 0   0   0 0.0 0 0 0 0 0% 15195 106618 25779 92%
c d  0.17 17 0 0 0  0 0   0   0 0.0 0 0 0 0 0% 11003 106618 25779 92%
c =  0.23 17 0 0 0  0 0   0   0 0.0 0 0 0 0 0% 11049 106616 25756 92%
c d  0.24 17 0 0 0  0 0   0   0 0.0 0 0 0 0 0% 11003 106616 25756 92%
c f  0.37 16 0 0 0  0 0   0   0 0.0 0 0 0 0 0% 16191 98228 28742 103%
c e  0.52 23 0 0 0  0 0   0   0 0.0 0 0 0 0 0% 9647 107122 19659 71%
c )  0.52 23 0 0 0  0 0   0   0 0.0 0 0 0 0 0% 9647 107122 19659 71%
c {  0.53 24 0 0 0  0 0   0   0 0.0 0 0 2 6 0% 9647 107122 19659 71%
c -  0.71 24 179 0 1 255 40 1000 753 4.0 24 6 3 11 25% 9682 107121 19659 71%
c -  0.96 24 179 0 2 448 41 2001 1364 4.2 30 7 3 12 28% 9722 107121 19659 71%
c c  1.05 20 270 0 2 474 41 2503 1803 4.2 29 7 3 12 27% 9735 107045 19643 70%
c d  1.05 20 270 0 2 474 41 2503 1797 4.2 29 7 3 12 27% 9703 107045 19643 70%
c u  1.06 20 270 0 2 474 41 2503 1480 4.2 29 7 3 12 27% 9711 107045 19643 70%
c v  1.08 20 270 0 2 474 41 2503 1240 4.2 29 7 3 12 27% 9711 107045 19643 70%
c w  1.09 23 270 0 2 474 41 2503 1240 4.2 29 7 3 12 27% 9711 107045 19643 70%
c x  1.11 23 270 0 2 474 41 2503 1240 4.2 29 7 3 12 27% 9711 106933 19643 70%
c =  1.17 23 270 0 2 474 41 2503 1240 4.2 29 7 3 12 27% 9763 106933 19617 70%
c
c  seconds   switched   rate       size/glue tier1     binary          remaining
c         MB  reductions conflicts       size  tier2      irredundant
c           level restarts    redundant    glue    trail          variables
c
c d  1.18 23 270 0 2 474 41 2503 1239 4.2 29 7 3 12 27% 9705 106933 19616 70%
c t  1.19 23 270 0 2 474 41 2503 1239 4.2 29 7 3 12 27% 9701 106933 19616 70%
c f  1.21 23 270 0 2 474 41 2503 1239 4.2 29 7 3 12 27% 10913 104571 20541 74%
c u  1.23 23 270 0 2 474 41 2503 1204 4.2 29 7 3 12 27% 10915 104571 20541 74%
c v  1.24 23 270 0 2 474 41 2503 1135 4.2 29 7 3 12 27% 10915 104571 20541 74%
c w  1.27 23 270 0 2 474 41 2503 1129 4.2 29 7 3 12 27% 10915 104571 20541 74%
c x  1.28 23 270 0 2 474 41 2503 1129 4.2 29 7 3 12 27% 10915 104523 20541 74%
c =  1.34 23 270 0 2 474 41 2503 1129 4.2 29 7 3 12 27% 11187 104523 20405 73%
c d  1.35 23 270 0 2 474 41 2503 1127 4.2 29 7 3 12 27% 10858 104523 20404 73%
c f  1.38 23 270 0 2 474 41 2503 1127 4.2 29 7 3 12 27% 11531 103503 20743 74%
c -  1.49 24 334 0 3 532 40 3415 1633 4.1 26 6 3 11 28% 11570 103503 20743 74%
c -  1.70 24 427 0 4 693 41 5151 2650 4.3 26 6 3 10 26% 11662 103501 20743 74%
c -  2.07 24 408 0 5 955 42 7151 3739 4.3 28 6 3 10 26% 11752 103501 20743 74%
c c  2.20 24 419 0 5 1005 43 7709 4125 4.4 28 6 3 10 26% 11809 103097 20659 74%
c d  2.20 24 419 0 5 1005 43 7709 4095 4.4 28 6 3 10 26% 11641 103097 20659 74%
c u  2.22 24 419 0 5 1005 43 7709 3339 4.4 28 6 3 10 26% 11665 103097 20659 74%
c v  2.24 24 419 0 5 1005 43 7709 3043 4.4 28 6 3 10 26% 11665 103097 20659 74%
c w  2.28 24 419 0 5 1005 43 7709 3036 4.4 28 6 3 10 26% 11665 103097 20659 74%
c =  2.37 24 419 0 5 1005 43 7709 3036 4.4 28 6 3 10 26% 12439 103097 20272 73%
c d  2.38 24 419 0 5 1005 43 7709 2980 4.4 28 6 3 10 26% 11487 103097 20268 73%
c
c  seconds   switched    rate       size/glue tier1     binary           remaining
c         MB  reductions  conflicts       size  tier2       irredundant
c           level  restarts    redundant    glue    trail           variables
c
c t  2.40 24 419 0 5 1005 43 7709 2980 4.4 28 6 3 10 26% 11485 103097 20268 73%
c f  2.46 24 419 0 5 1005 43 7709 2980 4.4 28 6 3 10 26% 12164 102072 20609 74%
c u  2.58 24 419 0 5 1005 43 7709 2851 4.4 28 6 3 10 26% 12165 102072 20609 74%
c v  2.62 24 419 0 5 1005 43 7709 2790 4.4 28 6 3 10 26% 12165 102072 20609 74%
c w  2.70 24 419 0 5 1005 43 7709 2785 4.4 28 6 3 10 26% 12165 102072 20609 74%
c x  2.74 24 419 0 5 1005 43 7709 2785 4.4 28 6 3 10 26% 12165 101924 20609 74%
c =  2.89 24 419 0 5 1005 43 7709 2785 4.4 28 6 3 10 26% 12855 101920 20264 73%
c d  2.90 24 419 0 5 1005 43 7709 2775 4.4 28 6 3 10 26% 12007 101920 20264 73%
c t  2.92 24 419 0 5 1005 43 7709 2775 4.4 28 6 3 10 26% 11995 101920 20264 73%
c f  2.98 24 419 0 5 1005 43 7709 2775 4.4 28 6 3 10 26% 14011 98894 21272 76%
c -  3.54 24 402 0 6 1177 41 9387 3662 4.4 29 7 3 10 26% 14083 98894 21272 76%
c o  3.83 24 413 0 6 1259 41 10322 4397 4.5 30 7 3 10 26% 14134 98894 21272 76%
c -  4.51 24 395 0 7 1456 40 11837 5015 4.7 33 7 2 10 27% 14155 98894 21272 76%
c s  4.88 24 386 0 7 1560 40 12510 5635 4.6 33 7 2 10 28% 14166 95798 21272 76%
c e  5.03 24 386 0 7 1560 40 12510 5635 4.6 33 7 2 10 28% 13467 96111 20651 74%
c s  5.04 24 386 0 7 1560 40 12510 5635 4.6 33 7 2 10 28% 13482 95667 20651 74%
c e  5.05 24 386 0 7 1560 40 12510 5635 4.6 33 7 2 10 28% 13335 95774 20579 74%
c ^  5.05 24 386 0 7 1560 40 12510 5635 4.6 33 7 2 10 28% 13335 95774 20579 74%
c -  5.49 24 379 0 8 1727 39 14482 5946 4.6 32 7 2 10 27% 13389 95774 20579 74%
c d  6.13 24 366 0 8 1918 40 15789 7079 4.8 35 7 2 10 28% 13023 95774 20349 73%
c
c  seconds   switched    rate        size/glue tier1     binary          remaining
c         MB  reductions   conflicts       size  tier2       irredundant
c           level  restarts     redundant    glue    trail          variables
c
c u  6.18 24 366 0 8 1918 40 15789 6262 4.8 35 7 2 10 28% 13040 95774 20349 73%
c v  6.25 24 366 0 8 1918 40 15789 5274 4.8 35 7 2 10 28% 13041 95774 20349 73%
c w  6.37 24 366 0 8 1918 40 15789 5272 4.8 35 7 2 10 28% 13041 95774 20349 73%
c x  6.43 24 366 0 8 1918 40 15789 5272 4.8 35 7 2 10 28% 13046 95513 20349 73%
c =  6.70 24 366 0 8 1918 40 15789 5272 4.8 35 7 2 10 28% 14030 95513 19857 71%
c d  6.71 24 366 0 8 1918 40 15789 5209 4.8 35 7 2 10 28% 12905 95513 19853 71%
c t  6.73 24 366 0 8 1918 40 15789 5209 4.8 35 7 2 10 28% 12809 95513 19853 71%
c f  6.81 24 366 0 8 1918 40 15789 5209 4.8 35 7 2 10 28% 12907 95293 19909 71%
c c  6.89 24 366 0 8 1918 40 15789 5209 4.8 35 7 2 10 28% 12913 95277 19906 71%
c d  6.90 24 366 0 8 1918 40 15789 5209 4.8 35 7 2 10 28% 12907 95277 19906 71%
c u  6.94 24 366 0 8 1918 40 15789 4998 4.8 35 7 2 10 28% 12908 95277 19906 71%
c v  6.98 24 366 0 8 1918 40 15789 4860 4.8 35 7 2 10 28% 12908 95277 19906 71%
c w  7.12 24 366 0 8 1918 40 15789 4839 4.8 35 7 2 10 28% 12908 95277 19906 71%
c x  7.17 24 366 0 8 1918 40 15789 4838 4.8 35 7 2 10 28% 12908 93630 19906 71%
c =  7.46 24 366 0 8 1918 40 15789 4838 4.8 35 7 2 10 28% 15552 93630 18584 67%
c d  7.47 24 366 0 8 1918 40 15789 4756 4.8 35 7 2 10 28% 11735 93630 18584 67%
c f  7.54 24 366 0 8 1918 40 15789 4756 4.8 35 7 2 10 28% 11739 93622 18586 67%
c -  8.15 24 359 0 9 2100 40 17310 5333 4.8 35 7 2 9 28% 11754 93622 18586 67%
c -  8.83 24 356 0 10 2314 38 20312 7025 4.7 34 7 2 9 28% 11789 93622 18586 67%
c o  8.83 24 356 0 10 2317 38 20322 7035 4.7 34 7 2 9 28% 11789 93622 18586 67%
c
c  seconds   switched     rate        size/glue tier1    binary          remaining
c         MB   reductions   conflicts       size  tier2      irredundant
c           level   restarts     redundant    glue   trail          variables
c
c -  9.87 24 344 0 11 2622 37 23474 8576 4.7 36 8 2 9 29% 11841 93622 18586 67%
c s 10.49 24 340 0 11 2800 36 25014 9944 4.6 37 8 2 9 29% 11872 89354 18586 67%
c e 10.62 24 340 0 11 2800 36 25014 9944 4.6 37 8 2 9 29% 9232 92327 17141 61%
c s 10.63 24 340 0 11 2800 36 25014 9944 4.6 37 8 2 9 29% 9239 92018 17141 61%
c e 10.64 24 340 0 11 2800 36 25014 9944 4.6 37 8 2 9 29% 9179 92060 17117 61%
c ^ 10.64 24 340 0 11 2800 36 25014 9944 4.6 37 8 2 9 29% 9179 92060 17117 61%
c - 11.12 24 326 0 12 2923 35 26790 9157 4.4 35 8 2 9 29% 9219 92060 17117 61%
c d 11.20 24 325 0 12 2944 35 26916 9257 4.5 36 8 2 9 29% 9119 92060 17059 61%
c u 11.26 24 325 0 12 2944 35 26916 8138 4.5 36 8 2 9 29% 9131 92060 17059 61%
c v 11.33 24 325 0 12 2944 35 26916 7151 4.5 36 8 2 9 29% 9135 92060 17059 61%
c w 11.37 24 325 0 12 2944 35 26916 7146 4.5 36 8 2 9 29% 9135 92060 17059 61%
c x 11.48 24 325 0 12 2944 35 26916 7146 4.5 36 8 2 9 29% 9140 90941 17059 61%
c = 11.82 24 325 0 12 2944 35 26916 7146 4.5 36 8 2 9 29% 11904 90939 15677 56%
c d 11.83 24 325 0 12 2944 35 26916 6956 4.5 36 8 2 9 29% 9040 90939 15677 56%
c t 11.85 24 325 0 12 2944 35 26916 6956 4.5 36 8 2 9 29% 9037 90939 15677 56%
c f 11.93 24 325 0 12 2944 35 26916 6956 4.5 36 8 2 9 29% 9105 90747 15712 56%
c u 11.98 24 325 0 12 2944 35 26916 6612 4.5 36 8 2 9 29% 9109 90747 15712 56%
c v 12.02 24 325 0 12 2944 35 26916 6464 4.5 36 8 2 9 29% 9109 90747 15712 56%
c w 12.06 24 325 0 12 2944 35 26916 6462 4.5 36 8 2 9 29% 9109 90747 15712 56%
c x 12.19 24 325 0 12 2944 35 26916 6462 4.5 36 8 2 9 29% 9109 84955 15712 56%
c
c  seconds   switched     rate        size/glue tier1    binary         remaining
c         MB   reductions   conflicts       size  tier2     irredundant
c           level   restarts     redundant    glue   trail         variables
c
c = 12.49 24 325 0 12 2944 35 26916 6462 4.5 36 8 2 9 29% 9803 84955 15365 55%
c d 12.50 24 325 0 12 2944 35 26916 6449 4.5 36 8 2 9 29% 9098 84955 15365 55%
c - 13.16 24 324 0 13 3120 33 30254 8227 4.3 34 8 2 9 28% 9158 84955 15365 55%
c - 13.69 24 317 0 14 3298 32 33861 9991 4.2 32 8 2 8 28% 9235 84955 15365 55%
c - 14.46 25 315 0 15 3553 32 37602 11598 4.1 32 8 2 8 27% 9295 84955 15365 55%
c o 15.20 25 307 0 15 3801 31 40453 14054 4.1 32 8 2 8 27% 9338 84955 15365 55%
c c 15.63 25 305 0 15 3924 32 41243 14762 4.1 33 8 2 8 27% 9467 84116 15219 55%
c d 15.64 25 305 0 15 3924 32 41243 14322 4.1 33 8 2 8 27% 9175 84116 15219 55%
c u 15.72 25 305 0 15 3924 32 41243 12109 4.1 33 8 2 8 27% 9202 84116 15219 55%
c v 15.80 25 305 0 15 3924 32 41243 10684 4.1 33 8 2 8 27% 9207 84116 15219 55%
c w 15.86 25 305 0 15 3924 32 41243 10684 4.1 33 8 2 8 27% 9207 84116 15219 55%
c x 15.94 25 305 0 15 3924 32 41243 10683 4.1 33 8 2 8 27% 9207 80036 15219 55%
c = 16.20 25 305 0 15 3924 32 41243 10683 4.1 33 8 2 8 27% 9341 80036 15152 54%
c d 16.21 25 305 0 15 3924 32 41243 10549 4.1 33 8 2 8 27% 9183 80036 15143 54%
c t 16.23 25 305 0 15 3924 32 41243 10549 4.1 33 8 2 8 27% 9177 80036 15143 54%
c f 16.25 25 305 0 15 3924 32 41243 10549 4.1 33 8 2 8 27% 9179 80031 15144 54%
c u 16.32 25 305 0 15 3924 32 41243 10141 4.1 33 8 2 8 27% 9190 80031 15144 54%
c v 16.38 25 305 0 15 3924 32 41243 9864 4.1 33 8 2 8 27% 9192 80031 15144 54%
c w 16.50 25 305 0 15 3924 32 41243 9863 4.1 33 8 2 8 27% 9192 80031 15144 54%
c x 16.58 25 305 0 15 3924 32 41243 9863 4.1 33 8 2 8 27% 9193 79198 15144 54%
c
c  seconds   switched     rate        size/glue tier1    binary         remaining
c         MB   reductions   conflicts       size  tier2     irredundant
c           level   restarts     redundant    glue   trail         variables
c
c = 16.84 25 305 0 15 3924 32 41243 9863 4.1 33 8 2 8 27% 9553 79198 14964 54%
c d 16.85 25 305 0 15 3924 32 41243 9763 4.1 33 8 2 8 27% 9166 79198 14964 54%
c f 16.90 25 305 0 15 3924 32 41243 9763 4.1 33 8 2 8 27% 9168 79193 14965 54%
c - 16.98 25 303 0 16 3940 31 41474 8731 4.1 33 8 2 8 27% 9177 79193 14965 54%
c - 17.67 25 290 0 17 4165 30 45477 10836 4.0 31 8 2 7 27% 9218 79193 14965 54%
c - 18.47 25 287 0 18 4446 29 49600 12779 3.9 30 8 2 7 26% 9294 79193 14965 54%
c s 18.99 25 283 0 18 4615 29 52115 14904 3.9 30 8 2 7 26% 9341 76629 14965 54%
c e 19.10 25 283 0 18 4615 29 52115 14904 3.9 30 8 2 7 26% 8597 77787 14491 52%
c s 19.11 25 283 0 18 4615 29 52115 14904 3.9 30 8 2 7 26% 8599 77396 14491 52%
c e 19.12 25 283 0 18 4615 29 52115 14904 3.9 30 8 2 7 26% 8588 77415 14485 52%
c ^ 19.12 25 283 0 18 4615 29 52115 14904 3.9 30 8 2 7 26% 8588 77415 14485 52%
c - 19.45 25 280 0 19 4720 28 53846 13203 3.9 30 8 2 7 26% 8623 77415 14485 52%
c - 19.95 25 269 0 20 4900 27 58204 14991 3.8 29 8 2 7 25% 8687 77415 14485 52%
c c 20.18 25 271 0 20 4965 27 58880 15569 3.8 28 8 2 7 26% 8801 76671 14378 52%
c d 20.19 25 271 0 20 4965 27 58880 15265 3.8 28 8 2 7 26% 8587 76671 14378 52%
c u 20.27 25 271 0 20 4965 27 58880 12852 3.8 28 8 2 7 26% 8615 76671 14378 52%
c v 20.35 25 271 0 20 4965 27 58880 11537 3.8 28 8 2 7 26% 8623 76671 14378 52%
c w 20.41 25 271 0 20 4965 27 58880 11534 3.8 28 8 2 7 26% 8623 76671 14378 52%
c x 20.48 25 271 0 20 4965 27 58880 11530 3.8 28 8 2 7 26% 8623 76133 14378 52%
c = 20.78 25 271 0 20 4965 27 58880 11530 3.8 28 8 2 7 26% 10277 76133 13551 49%
c
c  seconds   switched     rate         size/glue tier1    binary         remaining
c         MB   reductions   conflicts        size  tier2     irredundant
c           level   restarts      redundant    glue   trail         variables
c
c d 20.79 25 271 0 20 4965 27 58880 11029 3.8 28 8 2 7 26% 8523 76133 13544 49%
c t 20.81 25 271 0 20 4965 27 58880 11029 3.8 28 8 2 7 26% 8517 76133 13544 49%
c f 20.87 25 271 0 20 4965 27 58880 11029 3.8 28 8 2 7 26% 8525 76097 13549 49%
c c 20.94 25 271 0 20 4965 27 58880 10998 3.8 28 8 2 7 26% 8539 76031 13540 49%
c d 20.94 25 271 0 20 4965 27 58880 10998 3.8 28 8 2 7 26% 8523 76031 13540 49%
c u 21.01 25 271 0 20 4965 27 58880 10307 3.8 28 8 2 7 26% 8527 76031 13540 49%
c v 21.06 25 271 0 20 4965 27 58880 10046 3.8 28 8 2 7 26% 8528 76031 13540 49%
c w 21.11 25 271 0 20 4965 27 58880 10012 3.8 28 8 2 7 26% 8528 76031 13540 49%
c x 21.23 25 271 0 20 4965 27 58880 10010 3.8 28 8 2 7 26% 8528 72427 13540 49%
c = 21.53 25 271 0 20 4965 27 58880 10010 3.8 28 8 2 7 26% 8900 72425 13354 48%
c d 21.53 25 271 0 20 4965 27 58880 9792 3.8 28 8 2 7 26% 8508 72425 13354 48%
c - 22.21 25 264 0 21 5191 26 62678 11683 3.7 28 7 2 7 25% 8556 72425 13354 48%
c - 22.79 25 259 0 22 5416 25 67261 13970 3.6 27 7 2 7 25% 8612 72424 13354 48%
c o 23.20 25 253 0 22 5563 25 70490 16855 3.5 26 7 2 7 25% 8643 72424 13354 48%
c - 23.44 25 252 0 23 5664 25 71952 16003 3.5 26 7 2 7 25% 8655 72424 13354 48%
c - 24.94 25 245 0 24 6260 25 76747 17736 3.5 26 7 2 7 25% 8703 72424 13354 48%
c d 25.70 25 240 0 24 6585 25 79962 20119 3.5 26 8 2 7 25% 8573 72424 13265 48%
c u 25.80 25 240 0 24 6585 25 79962 16845 3.5 26 8 2 7 25% 8616 72424 13265 48%
c v 25.89 25 240 0 24 6585 25 79962 15495 3.5 26 8 2 7 25% 8617 72424 13265 48%
c w 25.94 25 240 0 24 6585 25 79962 15495 3.5 26 8 2 7 25% 8617 72424 13265 48%
c
c  seconds   switched     rate         size/glue tier1    binary         remaining
c         MB   reductions   conflicts        size  tier2     irredundant
c           level   restarts      redundant    glue   trail         variables
c
c x 26.02 25 240 0 24 6585 25 79962 15493 3.5 26 8 2 7 25% 8617 72367 13265 48%
c = 26.42 25 240 0 24 6585 25 79962 15493 3.5 26 8 2 7 25% 9255 72356 12946 46%
c d 26.43 25 240 0 24 6585 25 79962 14560 3.5 26 8 2 7 25% 8507 72356 12945 46%
c t 26.45 25 240 0 24 6585 25 79962 14560 3.5 26 8 2 7 25% 8499 72356 12945 46%
c f 26.48 25 240 0 24 6585 25 79962 14560 3.5 26 8 2 7 25% 8501 72349 12946 46%
c c 26.54 25 240 0 24 6585 25 79962 14551 3.5 26 8 2 7 25% 8511 72309 12941 46%
c d 26.55 25 240 0 24 6585 25 79962 14551 3.5 26 8 2 7 25% 8501 72309 12941 46%
c u 26.62 25 240 0 24 6585 25 79962 13785 3.5 26 8 2 7 25% 8502 72309 12941 46%
c v 26.69 25 240 0 24 6585 25 79962 13005 3.5 26 8 2 7 25% 8502 72309 12941 46%
c w 26.91 25 240 0 24 6585 25 79962 12972 3.5 26 8 2 7 25% 8502 72309 12941 46%
c = 27.32 25 240 0 24 6585 25 79962 12972 3.5 26 8 2 7 25% 8570 72185 12894 46%
c d 27.33 25 240 0 24 6585 25 79962 12916 3.5 26 8 2 7 25% 8504 72185 12894 46%
c t 27.35 25 240 0 24 6585 25 79962 12916 3.5 26 8 2 7 25% 8503 72185 12894 46%
c - 27.92 25 238 0 25 6831 25 81647 12729 3.5 26 8 2 6 25% 8498 72185 12894 46%
c - 28.90 25 230 0 26 7241 24 86649 15136 3.4 26 8 2 6 25% 8536 72184 12894 46%
c i 30.08 25 225 0 26 7701 25 90335 18565 3.4 26 8 2 6 26% 8556 72181 12893 46%
c - 30.40 25 223 0 27 7822 25 91749 17561 3.4 26 8 2 6 26% 8555 72178 12893 46%
c s 31.19 25 219 0 27 8134 24 95799 20918 3.4 26 8 2 6 25% 8617 66852 12893 46%
c e 31.32 25 219 0 27 8134 24 95799 20918 3.4 26 8 2 6 25% 5849 73603 11412 41%
c s 31.34 25 219 0 27 8134 24 95799 20918 3.4 26 8 2 6 25% 5852 73135 11412 41%
c
c  seconds   switched     rate         size/glue tier1    binary         remaining
c         MB   reductions   conflicts        size  tier2     irredundant
c           level   restarts      redundant    glue   trail         variables
c
c e 31.35 25 219 0 27 8134 24 95799 20918 3.4 26 8 2 6 25% 5826 73197 11393 41%
c ^ 31.35 25 219 0 27 8134 24 95799 20918 3.4 26 8 2 6 25% 5826 73197 11393 41%
c - 31.71 25 217 0 28 8291 24 96951 15535 3.4 26 8 2 6 25% 5828 73197 11393 41%
c i 32.59 25 215 0 28 8695 25 99543 17840 3.4 26 8 2 6 26% 5852 73196 11392 41%
c - 33.41 25 211 0 29 9127 25 102242 16321 3.4 26 8 1 6 26% 5859 73196 11392 41%
c d 34.27 25 209 0 29 9549 25 104601 18531 3.3 26 8 1 6 26% 5849 73188 11383 41%
c d 34.27 25 209 0 29 9549 25 104601 18521 3.3 26 8 1 6 26% 5845 73188 11381 41%
c b 34.28 25 209 0 29 9549 25 104601 18521 3.3 26 8 1 6 26% 5845 73188 11380 41%
c u 34.33 25 209 0 29 9549 25 104601 16330 3.3 26 8 1 6 26% 5869 73188 11376 41%
c v 34.46 25 209 0 29 9549 25 104601 13259 3.3 26 8 1 6 26% 5885 73188 11376 41%
c w 34.70 25 209 0 29 9549 25 104601 13243 3.3 26 8 1 6 26% 5885 73188 11376 41%
c x 34.83 25 209 0 29 9549 25 104601 13236 3.3 26 8 1 6 26% 5895 72774 11376 41%
c = 35.51 25 209 0 29 9549 25 104601 13236 3.3 26 8 1 6 26% 5999 72724 11318 41%
c d 35.51 25 209 0 29 9549 25 104601 13046 3.3 26 8 1 6 26% 5852 72724 11317 41%
c t 35.53 25 209 0 29 9549 25 104601 13046 3.3 26 8 1 6 26% 5839 72724 11317 41%
c u 35.67 25 209 0 29 9549 25 104601 12410 3.3 26 8 1 6 26% 5842 72724 11317 41%
c v 35.74 25 209 0 29 9549 25 104601 11728 3.3 26 8 1 6 26% 5842 72724 11317 41%
c w 36.04 25 209 0 29 9549 25 104601 11529 3.3 26 8 1 6 26% 5842 72724 11317 41%
c x 36.21 25 209 0 29 9549 25 104601 11528 3.3 26 8 1 6 26% 5842 71296 11316 41%
c = 36.87 25 209 0 29 9549 25 104601 11528 3.3 26 8 1 6 26% 5848 71282 11311 41%
c
c  seconds   switched     rate          size/glue tier1    binary         remaining
c         MB   reductions   conflicts         size  tier2     irredundant
c           level   restarts       redundant    glue   trail         variables
c
c d 36.87 25 209 0 29 9549 25 104601 11528 3.3 26 8 1 6 26% 5844 71280 11311 41%
c d 36.88 25 209 0 29 9549 25 104601 11528 3.3 26 8 1 6 26% 5842 71280 11310 41%
c i 36.91 25 209 0 29 9549 25 104601 11528 3.3 26 8 1 6 26% 5842 71280 11310 41%
c i 36.96 25 208 0 29 9564 25 104909 11799 3.3 26 8 1 6 26% 5847 71280 11308 41%
c i 37.19 25 206 0 29 9664 25 106296 13044 3.3 26 8 1 6 26% 5854 71279 11307 41%
c - 37.41 25 204 0 30 9728 25 107627 11815 3.3 26 8 1 6 26% 5826 71279 11307 41%
c i 37.56 25 204 0 30 9804 25 108162 12326 3.3 26 8 1 6 26% 5828 71279 11305 41%
c o 37.87 25 200 0 30 9949 24 110493 14425 3.2 26 8 1 6 26% 5834 71279 11305 41%
c i 37.95 25 200 0 30 9998 24 111032 14892 3.2 26 8 1 6 27% 5840 71279 11304 41%
c i 38.09 25 199 0 30 10060 24 111706 15515 3.2 26 8 1 6 27% 5844 71279 11303 41%
c i 38.22 25 197 0 30 10108 24 112968 16645 3.2 26 8 1 6 26% 5855 71279 11302 41%
c - 38.24 25 197 0 31 10108 24 113105 13664 3.2 26 8 1 6 26% 5840 71279 11302 41%
c i 38.35 25 196 0 31 10173 24 113826 14307 3.2 26 8 1 6 27% 5843 71279 11301 41%
c - 38.92 25 189 0 32 10461 23 118673 15013 3.2 25 8 1 6 26% 5873 71279 11301 41%
c i 39.14 25 186 0 32 10572 22 120706 16721 3.2 25 8 1 6 26% 5904 71279 11300 41%
c i 39.28 25 183 0 32 10666 22 122237 17953 3.1 25 8 1 6 26% 5932 71279 11299 41%
c i 39.34 25 183 0 32 10708 22 122633 18313 3.1 25 8 1 6 26% 5935 71279 11298 41%
c i 39.36 25 183 0 32 10721 22 122691 18366 3.1 25 8 1 6 26% 5936 71279 11297 41%
c - 39.46 25 180 0 33 10788 22 124330 15664 3.1 25 8 1 6 25% 5973 71279 11297 41%
c i 39.46 25 180 0 33 10788 22 124343 15668 3.1 25 8 1 6 25% 5975 71279 11296 41%
c
c  seconds   switched      rate          size/glue tier1    binary         remaining
c         MB   reductions    conflicts         size  tier2     irredundant
c           level   restarts        redundant    glue   trail         variables
c
c i 39.64 25 176 0 33 10928 21 127074 17984 3.1 24 8 1 6 25% 5994 71279 11295 41%
c i 39.71 25 174 0 33 10960 21 128560 19228 3.1 24 8 1 6 25% 6008 71279 11292 41%
c i 39.76 25 172 0 33 11008 21 129416 19988 3.1 24 8 1 6 24% 6012 71279 11290 40%
c i 39.76 25 172 0 33 11012 21 129632 20135 3.1 24 8 1 6 24% 6020 71279 11287 40%
c i 39.77 25 171 0 33 11017 20 129951 20378 3.1 24 8 1 6 24% 6031 71279 11285 40%
c - 39.78 25 171 0 34 11024 20 130074 15955 3.1 24 8 1 6 24% 6003 71279 11285 40%
c i 39.79 25 171 0 34 11024 20 130335 16155 3.1 24 8 1 6 24% 6007 71279 11284 40%
c i 39.79 25 171 0 34 11024 20 130360 16159 3.1 24 8 1 6 24% 6012 71279 11283 40%
c i 39.79 25 171 0 34 11024 20 130367 16160 3.1 24 8 1 6 24% 6014 71279 11276 40%
c i 39.79 25 171 0 34 11024 20 130374 16160 3.1 24 8 1 6 24% 6018 71278 11266 40%
c } 39.79 25 171 0 34 11024 20 130378 16160 3.1 24 8 1 6 24% 6020 71278 11229 40%
c 0 39.79 25 171 0 34 11024 20 130378 16160 3.1 24 8 1 6 24% 6020 71278 11229 40%
c
c ---- [ result ] ------------------------------------------------------------
c
s UNSATISFIABLE
c
c ---- [ profiling ] ---------------------------------------------------------
c
c          27.41   68.88 %  search
c          27.41   68.88 %  focused
c          11.85   29.78 %  simplify
c          11.42   28.69 %  probe
c           4.88   12.25 %  sweep
c           4.37   10.99 %  vivify
c           0.80    2.01 %  factor
c           0.73    1.84 %  eliminate
c           0.58    1.46 %  congruence
c           0.57    1.42 %  substitute
c           0.45    1.14 %  preprocess
c           0.22    0.54 %  reduce
c           0.15    0.38 %  transitive
c           0.14    0.36 %  fastel
c           0.14    0.34 %  subsume
c           0.07    0.18 %  backbone
c           0.05    0.12 %  lucky
c           0.03    0.08 %  parse
c =============================================
c          39.79  100.00 %  total
c
c ---- [ statistics ] --------------------------------------------------------
c
c chronological:                         4867                4 %  conflicts
c conflicts:                           130378             3276.66 per second
c congruent:                             2465                9 %  variables
c decisions:                          2788078               21.38 per conflict
c eliminated:                           13225               47 %  variables
c factored:                              5700               20 %  variables
c fast_eliminated:                       9083               69 %  eliminated
c fast_strengthened:                      340               25 %  per strengthened
c fast_subsumed:                           87                1 %  per subsumed
c iterations:                              24                0 %  variables
c propagations:                     112812743          2835206    per second
c reductions:                              34             3835    interval
c reordered:                                5            26076    interval
c restarts:                             11024               12    interval
c strengthened:                          1369                0 %  checks
c substituted:                           9009               32 %  variables
c subsumed:                             16914                1 %  checks
c switched:                                 0                0    interval
c vivified:                             57963               11 %  checks
c
c ---- [ glue usage ] --------------------------------------------------------
c
c focused glue 1   used 150786 clauses 50.58% accumulated 50.58% tier1
c focused glue 2   used  69812 clauses 23.42% accumulated 74.00%
c focused glue 3-4 used  35187 clauses 11.80% accumulated 85.81%
c focused glue 5   used   9010 clauses  3.02% accumulated 88.83%
c focused glue 6   used   6469 clauses  2.17% accumulated 91.00% tier2
c
c ---- [ resources ] ---------------------------------------------------------
c
c maximum-resident-set-size:         26112000 bytes         25 MB
c process-time:                            40s              39.79 seconds
c
c ---- [ shutting down ] -----------------------------------------------------
c
c exit 20
